============================[ Problem Statistics ]=============================|                                                                             ||  Number of variables:          4242                                         ||  Number of clauses:            9684                                         ||  Parse time:                   0.09 s                                       ||                                                                             |============================[ Search Statistics ]==============================| Conflicts |          ORIGINAL         |          LEARNT          | Progress ||           |    Vars  Clauses Literals |    Limit  Clauses Lit/Cl |          |==============================================================================================================================================================restarts              : 1conflicts             : 54             (412 /sec)decisions             : 139            (0.00 % random) (1061 /sec)propagations          : 8136           (62107 /sec)conflict literals     : 2424           (95.88 % deleted)CPU time              : 0.131 sSATISFIABLE